c User generated cnf file
p cnf 12 32
8 -9 12 0 
5 -4 3 0 
10 -12 7 0 
11 5 -12 0 
5 2 -3 0 
1 -9 3 0 
1 4 -4 0 
9 -12 7 0 
4 12 -6 0 
10 7 -1 0 
12 4 -5 0 
11 12 -11 0 
8 -3 2 0 
8 -9 11 0 
6 12 -4 0 
6 -10 7 0 
9 7 -7 0 
9 6 -2 0 
11 4 -4 0 
11 2 -8 0 
1 12 -5 0 
8 6 -10 0 
4 8 -12 0 
9 2 -7 0 
12 12 -7 0 
6 -4 8 0 
7 -7 11 0 
4 -9 11 0 
11 -3 7 0 
8 1 -8 0 
5 -11 2 0 
9 -5 8 0 
